File: D:\ML4VRP2024\Instances\CVRP\json\X-n129-k18.json exists.
Route #1: 75 66 64 18 59 1 23 
Route #2: 52 9 54 22 34 2 
Route #3: 3 86 113 27 7 21 
Route #4: 119 80 98 4 
Route #5: 5 106 128 107 36 65 11 85 
Route #6: 50 63 19 6 45 29 48 
Route #7: 38 118 8 37 
Route #8: 53 123 122 126 71 105 104 10 79 76 
Route #9: 125 31 97 42 99 16 12 96 
Route #10: 93 39 43 30 62 56 13 
Route #11: 47 127 74 14 102 32 114 73 95 
Route #12: 15 90 44 60 
Route #13: 68 81 110 17 101 41 61 
Route #14: 78 20 87 121 94 111 58 40 55 
Route #15: 24 28 83 109 51 120 69 
Route #16: 91 103 89 84 25 77 35 57 
Route #17: 70 115 26 108 100 92 116 
Route #18: 88 82 124 67 46 33 
Route #19: 117 112 72 49 
